NAME: ACTUAL_TOURS/amz1599
TYPE: TOUR
COMMENT: RouteID_ab98b623-bc99-435f-bfbd-f05d79a5177e
DIMENSION: 102
TOUR_SECTION
41
10
97
11
3
56
49
101
4
64
87
79
90
16
59
47
17
23
53
15
102
30
29
33
94
14
54
63
20
45
72
98
25
66
81
13
58
40
51
34
21
83
43
88
70
86
95
22
65
18
55
78
7
80
52
68
57
50
5
67
39
96
28
99
89
8
69
82
85
42
37
48
19
26
31
91
24
75
27
61
74
35
44
73
77
100
93
71
60
84
76
6
32
38
92
62
46
12
2
36
9
1
-1
EOF
